NAME : GeneratedInstance
TYPE : TSP
DIMENSION : 20
EDGE_WEIGHT_TYPE : EUC_2D
NODE_COORD_SECTION
1 67.232290 21.930479
2 47.522226 1.885495
3 41.995679 79.142494
4 26.107240 1.255747
5 17.316989 52.088346
6 29.491923 8.321741
7 68.095167 43.366751
8 65.873202 78.870395
9 82.394149 80.358805
10 15.704989 75.392064
11 97.414358 42.286796
12 89.625396 89.260694
13 34.258210 63.535865
14 64.619219 62.139687
15 5.640104 73.185165
16 33.244260 75.692145
17 7.378262 54.972498
18 90.786126 80.675413
19 39.961632 89.892249
20 16.268520 43.255847
EOF
